(set-option :produce-models true)
(set-logic QF_UF)
(declare-fun p19() Bool)
(declare-fun p36() Bool)
(declare-fun p91() Bool)
(declare-fun p4() Bool)
(declare-fun p24() Bool)
(declare-fun p89() Bool)
(declare-fun p40() Bool)
(declare-fun p51() Bool)
(declare-fun p93() Bool)
(declare-fun p8() Bool)
(declare-fun p50() Bool)
(declare-fun p98() Bool)
(declare-fun p49() Bool)
(declare-fun p97() Bool)
(declare-fun p23() Bool)
(declare-fun p31() Bool)
(declare-fun p15() Bool)
(declare-fun p52() Bool)
(declare-fun p10() Bool)
(declare-fun p45() Bool)
(declare-fun p54() Bool)
(declare-fun p77() Bool)
(declare-fun p66() Bool)
(declare-fun p38() Bool)
(declare-fun p60() Bool)
(declare-fun p72() Bool)
(declare-fun p71() Bool)
(declare-fun p56() Bool)
(declare-fun p59() Bool)
(declare-fun p43() Bool)
(declare-fun p25() Bool)
(declare-fun p48() Bool)
(declare-fun p34() Bool)
(declare-fun p79() Bool)
(declare-fun p32() Bool)
(declare-fun p26() Bool)
(declare-fun p62() Bool)
(declare-fun p44() Bool)
(declare-fun p82() Bool)
(declare-fun p78() Bool)
(declare-fun p3() Bool)
(declare-fun p53() Bool)
(declare-fun p29() Bool)
(declare-fun p88() Bool)
(declare-fun p92() Bool)
(declare-fun p16() Bool)
(declare-fun p90() Bool)
(declare-fun p68() Bool)
(declare-fun p61() Bool)
(declare-fun p65() Bool)
(declare-fun p85() Bool)
(declare-fun p7() Bool)
(declare-fun p33() Bool)
(declare-fun p1() Bool)
(declare-fun p18() Bool)
(declare-fun p30() Bool)
(declare-fun p84() Bool)
(declare-fun p22() Bool)
(declare-fun p63() Bool)
(declare-fun p80() Bool)
(declare-fun p75() Bool)
(declare-fun p47() Bool)
(declare-fun p12() Bool)
(declare-fun p20() Bool)
(declare-fun p76() Bool)
(declare-fun p95() Bool)
(declare-fun p96() Bool)
(declare-fun p35() Bool)
(declare-fun p58() Bool)
(declare-fun p87() Bool)
(declare-fun p11() Bool)
(declare-fun p37() Bool)
(declare-fun p70() Bool)
(declare-fun p46() Bool)
(declare-fun p74() Bool)
(declare-fun p13() Bool)
(declare-fun p67() Bool)
(declare-fun p73() Bool)
(declare-fun p41() Bool)
(declare-fun p28() Bool)
(declare-fun p39() Bool)
(declare-fun p99() Bool)
(declare-fun p64() Bool)
(declare-fun p0() Bool)
(declare-fun p6() Bool)
(declare-fun p83() Bool)
(declare-fun p94() Bool)
(declare-fun p14() Bool)
(declare-fun p2() Bool)
(declare-fun p42() Bool)
(declare-fun p81() Bool)
(declare-fun p17() Bool)
(declare-fun p55() Bool)
(declare-fun p69() Bool)
(declare-fun p27() Bool)
(declare-fun p86() Bool)
(declare-fun p57() Bool)
(declare-fun p21() Bool)
(declare-fun p5() Bool)
(declare-fun p9() Bool)
(assert
(and (or p19 (not p36) p91) (or (not p4) (not p19) p24) (or p89 p40 (not p36)) (or (not p51) p93 (not p8)) (or p4 (not p50) (not p98)) (or p49 (not p97) p23) (or (not p31) p15 p52) (or (not p50) p10 p45) (or (not p54) p77 (not p66)) (or (not p38) (not p60) (not p72)) (or p71 p72 (not p56)) (or p59 p43 p25) (or p48 (not p34) (not p79)) (or (not p59) (not p59) (not p32)) (or (not p26) (not p62) p44) (or (not p36) (not p19) p82) (or p8 p77 p77) (or (not p15) p78 (not p43)) (or p60 p3 p53) (or p29 p88 (not p92)) (or p23 p16 p90) (or (not p91) p26 (not p68)) (or p36 (not p61) p65) (or (not p85) p7 (not p51)) (or p91 p93 (not p49)) (or (not p33) (not p56) p77) (or p1 p18 p45) (or p88 (not p30) (not p31)) (or p19 p84 (not p53)) (or p22 (not p85) (not p51)) (or p18 (not p31) (not p77)) (or p63 (not p8) (not p77)) (or (not p80) p75 p8) (or (not p71) (not p47) p31) (or (not p12) p82 p47) (or p91 (not p91) (not p20)) (or p20 p76 (not p91)) (or (not p25) (not p34) (not p43)) (or (not p97) (not p95) (not p96)) (or p35 (not p58) (not p33)) (or p89 (not p60) p87) (or (not p11) (not p37) (not p3)) (or p70 p4 (not p40)) (or (not p1) p46 (not p76)) (or p75 p89 (not p79)) (or (not p75) p80 (not p76)) (or p22 p66 p74) (or (not p33) (not p49) p97) (or (not p32) (not p75) (not p98)) (or (not p98) p77 (not p18)) (or (not p49) (not p33) (not p24)) (or p98 p11 (not p4)) (or p16 (not p33) (not p13)) (or p88 (not p29) (not p22)) (or p67 (not p88) p37) (or p89 (not p89) p37) (or p73 p79 p80) (or p88 p41 p24) (or p45 (not p66) (not p89)) (or p36 p95 (not p31)) (or (not p90) p25 p82) (or p68 (not p28) p7) (or (not p39) p84 p82) (or p40 (not p61) (not p71)) (or (not p7) p66 (not p50)) (or (not p1) p99 (not p11)) (or (not p18) p31 p64) (or p16 p22 p18) (or (not p49) (not p99) (not p98)) (or p70 p0 (not p18)) (or p97 (not p31) (not p95)) (or p6 p46 p84) (or p4 p83 (not p65)) (or (not p71) (not p73) p20) (or (not p62) p79 p94) (or p58 p14 (not p41)) (or (not p66) (not p71) p60) (or (not p2) p42 p94) (or (not p10) (not p40) p81) (or p17 (not p17) (not p94)) (or (not p96) (not p0) p66) (or (not p94) p94 p18) (or (not p58) p68 (not p71)) (or (not p89) (not p70) p83) (or p72 p85 (not p51)) (or (not p48) p14 p77) (or (not p62) (not p40) (not p58)) (or p41 (not p73) p25) (or p65 p55 p19) (or p60 (not p18) (not p58)) (or (not p69) p34 p28) (or p53 p16 (not p6)) (or p27 (not p31) (not p53)) (or (not p16) (not p87) p34) (or p54 p22 (not p34)) (or (not p55) p83 (not p54)) (or p99 (not p55) (not p87)) (or (not p67) (not p19) (not p22)) (or p13 (not p20) (not p77)) (or p43 (not p71) p54) (or p59 (not p90) p54) (or p40 p40 p1) (or p54 p62 p16) (or (not p17) (not p88) p31) (or p16 p2 (not p99)) (or p38 (not p35) p10) (or p36 p88 (not p81)) (or (not p10) p74 (not p78)) (or p80 p85 (not p49)) (or p18 (not p12) p46) (or p67 p0 (not p13)) (or p82 (not p44) (not p90)) (or (not p55) p35 p34) (or (not p80) (not p8) p78) (or p83 (not p65) (not p24)) (or p0 (not p8) p46) (or p3 (not p86) p20) (or p12 (not p27) p43) (or (not p29) p45 (not p79)) (or (not p15) (not p26) p62) (or (not p48) (not p80) p57) (or p52 p73 p79) (or p84 p3 p91) (or p78 (not p75) (not p13)) (or (not p26) (not p67) (not p19)) (or p18 p3 p19) (or p49 p7 p73) (or p88 (not p89) (not p42)) (or p73 (not p88) (not p66)) (or p36 (not p71) p38) (or (not p11) (not p48) p8) (or (not p38) (not p86) (not p67)) (or p22 (not p85) p80) (or (not p60) (not p33) (not p40)) (or (not p50) (not p44) (not p64)) (or (not p29) (not p6) (not p22)) (or (not p72) p21 p95) (or p43 (not p21) p49) (or (not p67) (not p75) p59) (or (not p15) p99 (not p8)) (or (not p31) (not p38) p15) (or (not p89) p74 (not p66)) (or p70 (not p10) (not p23)) (or (not p2) (not p4) (not p16)) (or (not p62) p1 p47) (or p48 (not p40) p43) (or (not p61) p0 p89) (or (not p86) (not p26) (not p58)) (or p53 (not p86) (not p34)) (or p42 (not p99) (not p89)) (or p80 p55 (not p44)) (or p40 p68 (not p52)) (or (not p5) p23 (not p98)) (or (not p29) p33 p27) (or (not p34) (not p72) p9) (or p7 (not p60) (not p2)) (or (not p71) (not p12) (not p79)) (or (not p42) p74 p96) (or p30 (not p1) (not p76)) (or (not p63) (not p35) p41) (or (not p56) p26 (not p39)) (or p46 (not p66) p93) (or p84 p32 p22) (or (not p93) (not p66) p23) (or (not p18) p93 p48) (or p61 (not p92) (not p90)) (or (not p7) (not p21) (not p58)) (or (not p78) (not p79) (not p55)) (or p29 (not p19) p44) (or (not p87) (not p18) (not p38)) (or p15 (not p69) p30) (or p19 (not p84) (not p75)) (or (not p10) p86 (not p73)) (or (not p81) p33 p64) (or (not p92) p58 (not p17)) (or (not p43) (not p55) (not p92)) (or (not p1) (not p82) p75) (or (not p90) (not p42) (not p83)) (or (not p91) (not p36) p91) (or p48 p71 p1) (or p86 p24 (not p82)) (or p44 (not p75) p74) (or p50 p58 (not p77)) (or (not p41) p87 p72) (or p16 (not p64) (not p33)) (or (not p95) p57 p31) (or (not p95) p86 (not p64)) (or (not p93) (not p1) (not p14)) (or p78 p98 (not p70)) (or p72 p60 (not p46)) (or p89 p98 p82) (or (not p11) (not p25) (not p18)) (or (not p20) p33 p46) (or p70 (not p38) p2) (or p66 (not p31) p87) (or p30 p24 p69) (or (not p0) (not p45) p25) (or (not p71) p32 (not p36)) (or (not p78) p61 (not p90)) (or (not p96) (not p43) (not p96)) (or (not p83) (not p42) (not p18)) (or p18 p85 (not p55)) (or (not p97) p58 p39) (or p42 (not p86) p47) (or p72 (not p5) (not p35)) (or (not p1) (not p8) p16) (or (not p48) p20 (not p77)) (or (not p95) (not p36) (not p3)) (or p11 (not p38) p52) (or (not p49) (not p66) (not p4)) (or (not p29) (not p82) p9) (or (not p64) p49 p84) (or p6 (not p49) p78) (or (not p81) (not p90) p64) (or p72 p22 (not p75)) (or p68 p67 p26) (or (not p47) (not p91) p56) (or (not p93) p23 p41) (or (not p52) p16 (not p90)) (or (not p67) (not p52) p0) (or p52 p9 (not p96)) (or (not p53) p68 p9) (or p48 (not p28) (not p47)) (or p94 (not p20) p22) (or p79 p40 p51) (or (not p7) (not p41) (not p73)) (or p15 p34 p86) (or p40 p47 p24) (or (not p74) (not p25) (not p55)) (or p62 p29 p5) (or (not p14) p64 p60) (or (not p31) (not p7) (not p17)) (or p84 p36 (not p5)) (or p67 p76 p66) (or (not p68) p97 p29) (or (not p83) (not p69) p80) (or p51 (not p7) p19) (or (not p57) p76 (not p92)) (or (not p9) (not p65) p31) (or p59 p75 p68) (or (not p64) (not p76) (not p48)) (or (not p78) p68 (not p73)) (or (not p88) p21 (not p49)) (or (not p74) p49 (not p95)) (or p41 (not p72) (not p18)) (or p41 p69 (not p64)) (or (not p10) p59 (not p97)) (or p5 p76 p20) (or p15 p52 p6) (or (not p16) (not p57) (not p71)) (or (not p36) (not p75) p88) (or (not p74) p81 p86) (or p31 (not p38) p80) (or (not p48) p78 (not p88)) (or (not p69) (not p82) p35) (or p63 p94 (not p51)) (or p86 (not p88) (not p90)) (or (not p43) p97 p67) (or (not p6) (not p17) p84) (or (not p72) p84 (not p89)) (or p13 p93 (not p59)) (or p6 (not p76) p38) (or (not p85) (not p22) (not p81)) (or p59 (not p33) (not p33)) (or p83 (not p2) p13) (or p27 p25 (not p90)) (or (not p68) (not p15) (not p54)) (or p26 (not p93) (not p41)) (or (not p46) (not p1) (not p90)) (or (not p66) (not p36) (not p86)) (or (not p58) p31 (not p93)) (or (not p55) p60 (not p32)) (or (not p69) p69 (not p49)) (or p52 p76 (not p86)) (or (not p90) p21 p45) (or (not p96) p6 p66) (or p28 p77 (not p65)) (or (not p93) p75 p90) (or (not p96) p73 (not p39)) (or (not p22) p47 (not p13)) (or p67 p78 p15) (or (not p0) p60 (not p72)) (or p71 p11 (not p90)) (or p33 p29 p11) (or (not p60) p28 p66) (or (not p29) p31 p84) (or p41 p3 (not p67)) (or (not p1) p13 p61) (or (not p44) p58 (not p79)) (or p75 (not p28) (not p38)) (or p32 p62 p81) (or (not p60) (not p75) (not p81)) (or p77 (not p82) (not p77)) (or (not p3) (not p92) p7) (or p97 (not p51) p88) (or p80 (not p91) (not p16)) (or (not p30) p56 p45) (or p25 p53 p70) (or p45 (not p39) (not p80)) (or p8 (not p25) p80) (or (not p17) p22 (not p67)) (or p2 (not p96) (not p74)) (or (not p8) (not p87) p37) (or (not p87) (not p75) p42) (or p34 (not p81) p69) (or p60 p86 p43) (or p94 p79 p18) (or (not p69) p86 p20) (or p77 (not p24) p0) (or (not p51) p24 (not p5)) (or (not p22) (not p84) p94) (or (not p30) (not p35) p34) (or (not p93) p34 p79) (or p97 p81 (not p56)) (or (not p70) (not p58) p91) (or (not p53) p92 (not p91)) (or (not p20) p59 p3) (or p16 (not p54) (not p96)) (or p0 p53 (not p78)) (or p77 (not p44) (not p46)) (or p7 (not p67) (not p78)) (or p42 p80 p20) (or p55 (not p56) p33) (or (not p32) (not p20) p50) (or p46 p31 (not p76)) (or (not p46) (not p22) p20) (or p43 (not p83) (not p57)) (or (not p78) p52 (not p7)) (or p78 p85 p63) (or p75 (not p8) (not p21)) (or p32 p69 p96) (or p60 p42 (not p80)) (or (not p68) p7 (not p11)) (or p31 (not p65) p46) (or (not p67) (not p89) p14) (or p87 p69 (not p43)) (or (not p2) (not p76) (not p22)) (or (not p94) (not p46) (not p24)) (or p65 p43 p52) (or p10 (not p86) (not p59)) (or p41 p50 p74) (or p68 (not p57) p70) (or p99 (not p24) p33) (or p9 (not p31) p21) (or p45 (not p72) (not p38)) (or p86 (not p22) p87) (or (not p23) p31 (not p17)) (or (not p28) p58 p81) (or (not p37) p12 p7) (or p41 (not p68) (not p29)) (or p62 p3 (not p68)) (or (not p28) (not p79) (not p9)) (or (not p3) p58 (not p55)) (or (not p89) p75 (not p4)) (or (not p41) p45 (not p8)) (or (not p46) p82 (not p73)) (or p37 (not p16) (not p52)) (or (not p65) (not p81) (not p48)) (or p15 p34 (not p52)) (or (not p12) p4 (not p97)) (or p18 (not p18) p30) (or (not p91) p78 (not p56)) (or (not p92) (not p31) (not p41)) (or (not p59) (not p3) p64) (or (not p83) p70 (not p81)) (or p48 (not p75) p84) (or p22 (not p53) (not p97)) (or p42 (not p52) p70) (or (not p1) p98 (not p70)) (or p57 (not p96) p25) (or (not p73) (not p56) p14) (or p49 (not p17) (not p38)) (or (not p0) p62 (not p8)) (or (not p37) p33 (not p8)) (or p52 (not p5) p48) (or p30 p77 (not p45)) (or (not p72) (not p20) (not p76)) (or (not p51) (not p12) p81) (or (not p64) p24 (not p22)) (or p81 (not p78) (not p66)) (or p96 (not p46) p21) (or (not p72) (not p16) (not p99)) (or p39 (not p81) (not p62)) (or (not p80) (not p54) (not p99)) (or (not p1) p58 (not p78)) (or (not p48) (not p70) p2) (or p50 (not p1) (not p5)) (or (not p41) (not p74) p58) (or (not p32) p50 (not p6)) (or p62 p73 p36) (or p80 (not p12) p34) (or p52 p15 p55) (or (not p34) (not p55) (not p50)) (or (not p85) (not p7) (not p56)) (or (not p29) p18 p9) (or (not p68) p57 p5) (or p98 p89 (not p27)) (or (not p69) p60 (not p28)) (or (not p99) (not p20) (not p88)) (or p26 p98 (not p91)) (or (not p65) (not p30) (not p95)) (or (not p82) (not p55) (not p31)) (or (not p25) p51 (not p25)) (or p86 (not p8) (not p24)) (or p19 (not p92) p78) (or (not p41) p61 (not p68)) (or p49 p35 (not p47)) (or (not p95) p89 (not p47)) (or (not p97) p29 p21) (or p18 (not p95) p83) (or (not p65) p49 p79) (or (not p45) (not p49) (not p71)) (or p74 (not p45) (not p57)) (or p2 (not p82) p5) (or p82 p58 p27) (or p74 p81 p26) (or p32 p78 (not p40)) (or p42 (not p85) p94) (or (not p72) (not p37) p62) (or (not p70) (not p35) (not p1)))
)
(check-sat)
(get-model)
